! Solving for graph /home/truongxuanhieu/Gurobi-for-MinSpanLabeling/benchmarks/abp/V-nos6.mtx.rnd
! Target value is set to 329
! Lower bound is set to 330
! Upper bound is set to 675
! Time limit is set to 1800
! Vertices mode is set to Has hole
Set parameter WLSAccessID
Set parameter WLSSecret
Set parameter LicenseID to value 2663665
Academic license 2663665 - for non-commercial use only - registered to tu___@vnu.edu.vn
Set parameter OutputFlag to value 1
Set parameter TimeLimit to value 1800
Gurobi Optimizer version 13.0.2 build v13.0.2rc1 (linux64 - "Debian GNU/Linux 12 (bookworm)")

CPU model: AMD EPYC 7B12, instruction set [SSE2|AVX|AVX2]
Thread count: 4 physical cores, 8 logical processors, using up to 8 threads

Non-default parameters:
TimeLimit  1800

Academic license 2663665 - for non-commercial use only - registered to tu___@vnu.edu.vn
Optimize a model with 3256 rows, 3256 columns and 6511 nonzeros (Min)
Model fingerprint: 0x7ee25d49
Model has 1 linear objective coefficients
Model has 1290 simple general constraints
  1290 ABS
Variable types: 0 continuous, 3256 integer (0 binary)
Coefficient statistics:
  Matrix range     [1e+00, 1e+00]
  Objective range  [1e+00, 1e+00]
  Bounds range     [1e+00, 7e+02]
  RHS range        [3e+02, 3e+02]

Presolve added 0 rows and 1290 columns
Presolve removed 1 rows and 0 columns
Presolve time: 0.02s
Presolved: 3255 rows, 4546 columns, 10380 nonzeros
Presolved model has 1290 SOS constraint(s)
Variable types: 0 continuous, 4546 integer (0 binary)

Root relaxation: objective 3.300000e+02, 1302 iterations, 0.01 seconds (0.00 work units)

    Nodes    |    Current Node    |     Objective Bounds      |     Work
 Expl Unexpl |  Obj  Depth IntInf | Incumbent    BestBd   Gap | It/Node Time

     0     0  330.00000    0 1185          -  330.00000      -     -    0s
H    0     0                     330.0000000  330.00000  0.00%     -    0s

Explored 1 nodes (1302 simplex iterations) in 0.07 seconds (0.04 work units)
Thread count was 8 (of 8 available processors)

Solution count 1: 330 

Optimal solution found (tolerance 1.00e-04)
Best objective 3.300000000000e+02, best bound 3.300000000000e+02, gap 0.0000%
! --------------------------------------------------------
! Best span = 330
! Labeling: 330 330 330 1 330 1 1 330 330 1 1 330 1 1 1 330 1 330 1 330 330 1 330 1 330 330 1 1 330 1 330 330 1 1 1 330 1 330 330 1 330 1 330 1 330 330 1 330 330 1 330 330 330 1 1 1 1 330 1 1 330 1 1 330 330 1 1 1 1 330 330 330 330 1 1 330 330 330 1 330 330 1 1 1 330 1 1 1 1 330 330 330 1 330 1 1 330 330 330 330 1 330 330 330 330 330 330 1 330 330 330 330 330 330 330 1 330 1 1 1 1 330 1 1 330 330 330 1 1 1 330 330 330 1 330 1 1 330 330 1 1 330 330 1 1 1 330 330 1 330 1 330 1 330 1 1 330 330 330 1 1 1 1 1 330 330 1 330 330 1 1 1 330 1 1 330 330 330 330 330 330 1 1 1 330 1 1 1 330 1 1 1 1 330 1 1 1 330 330 330 1 1 1 1 330 1 1 1 1 1 1 1 1 1 1 330 330 330 1 330 330 1 1 330 330 1 1 1 330 330 330 1 1 1 1 330 1 330 1 330 330 330 330 330 1 330 330 1 1 330 1 1 330 330 330 330 330 330 330 330 1 330 1 330 1 330 330 330 330 330 1 1 1 330 1 330 330 330 1 1 330 1 1 330 1 1 1 1 1 330 330 1 330 1 330 1 1 1 1 1 330 330 1 330 1 1 1 330 1 330 330 330 1 330 330 1 1 1 1 330 1 1 1 330 330 1 330 1 330 330 330 330 1 1 330 330 330 330 1 1 330 1 330 330 330 1 330 330 1 330 1 330 330 1 1 330 330 330 330 330 1 1 330 330 330 1 330 330 1 1 330 1 1 330 330 330 330 1 330 330 330 330 1 330 330 330 330 330 1 1 330 330 330 1 1 1 1 330 330 1 1 330 330 1 330 330 1 1 1 330 1 330 330 330 1 1 330 1 330 1 1 330 330 330 1 1 330 330 1 330 330 1 330 330 1 330 330 330 330 1 330 1 1 330 330 1 330 330 1 1 330 1 1 1 330 330 330 330 330 1 330 1 1 1 1 1 1 1 1 330 1 330 330 330 330 330 330 1 1 330 1 1 330 330 330 1 330 1 1 330 330 1 1 1 330 330 330 1 330 330 1 1 330 1 1 1 1 330 1 330 1 1 1 330 330 330 330 330 1 1 330 330 1 1 330 1 330 1 1 1 330 1 1 1 1 1 1 1 330 1 1 330 330 1 1 1 1 1 330 330 1 1 330 330 330 330 330 1 330 1 330 1 330 1 330 1 1 1 330 1 1 330 1 1 330 330 330 1 1 330 330 1 330 330 1 1 330 1 330 330 330 330 330 1 330 330 1 1 1 1 330 330 330 330 1 1 1 1 1 330 330 1 1 330 330 1 1 330 330 1 1 330 1 330 330 330 1 1 1 1 330 1 1 1 330 330 1 330 1 1 1 1 1 1 330 330 1 1 1 330 1 1 1 1 330 330 1 330 330 1 1 1 330 1 1 1 330 330 1 330 1 330 330 330 330 
! --------------------------------------------------------
